COLUMNS

passenger_count
pickup_ID
dropoff_ID
request_time_sec
pickup_district
dropoff_district
LDuals
IDuals
vehicle_ID
pick_position
drop_position

REQUESTS_INFO
3      675       527       29949     189       52        121.5     121.5     30        1         2         
3      700       749       29954     290       290       156       156       45        1         2         
3      895       1225      29852     291       192       273       273       71        1         2         
1      549       350       29959     52        127       115       115       103       1         2         
1      922       649       29952     50        189       232       232       134       1         4         
1      441       628       29945     168       189       140       140       158       1         3         
3      884       651       29926     290       189       257       257       177       1         3         
2      768       760       29920     290       291       222       222       182       1         3         
3      793       908       29934     290       290       246       246       190       1         2         
2      317       627       29947     277       189       186       186       195       1         2         
2      527       372       29963     52        119       138       138       208       1         3         
3      948       748       29905     290       290       321       321       215       1         2         
3      972       794       29943     290       290       250       250       335       1         2         
3      788       602       29952     290       189       173       173       364       1         2         
1      415       463       29967     100       168       122       122       366       1         2         
3      413       694       29964     52        189       144       144       376       1         2         
1      677       648       29948     189       189       136       136       424       1         2         
2      350       134       29942     127       9         214       214       439       1         2         
3      948       748       29905     290       290       321       321       440       1         2         
1      794       10        29950     290       98        174       174       463       1         3         
1      829       963       29940     50        50        116.5     116.5     485       1         2         
2      479       558       29964     52        189       182       182       516       1         3         
2      463       457       29957     168       52        140       140       518       1         2         
1      814       696       29943     290       189       154       154       542       1         2         
1      985       781       29898     50        291       243       243       558       1         2         
1      945       759       29946     50        131       232       232       593       1         4         
3      749       719       29949     290       189       235       235       633       1         2         
1      702       971       29946     290       290       170       170       655       1         4         
2      310       504       29949     127       52        176       176       690       1         2         
3      700       727       29953     290       290       157       157       699       1         3         
1      858       727       29955     290       290       192       192       717       1         2         
1      794       484       29924     290       189       226       226       746       1         3         
2      766       805       29941     290       291       149.5     149.5     756       1         3         
1      834       805       29961     290       291       197       197       789       1         2         
2      804       574       29957     291       189       141       141       804       1         2         
1      413       1109      29966     52        291       113       113       808       1         4         
4      925       533       29893     290       199       301       301       810       1         2         
1      1002      669       29943     291       280       178       178       816       1         3         
1      904       442       29959     290       168       221       221       826       1         3         
3      836       624       29785     290       189       368       368       853       1         2         
1      930       512       29912     999       199       294       294       866       1         2         
2      1068      1206      29904     291       192       291       291       868       1         2         
3      740       881       29744     50        290       359       359       934       1         2         
1      984       748       29816     291       290       347       347       943       1         2         
1      841       744       29962     290       290       196       196       996       1         4         
2      928       675       29842     290       189       394       394       996       2         3         
3      1106      694       29941     291       189       212       212       1046      1         3         
1      273       257       29965     206       87        150       150       1079      1         2         
1      981       556       29940     291       199       176       176       1084      1         3         
2      1180      1054      29942     84        84        146       146       1104      1         2         
1      1012      699       29905     84        290       292       292       1111      1         4         
1      722       696       29932     290       189       170       170       1114      1         2         
1      374       531       29914     119       189       192       192       1115      1         2         
1      737       531       29956     189       189       108       108       1131      1         3         
1      906       652       29915     290       189       287       287       1135      1         2         
1      949       1180      29937     290       84        273       273       1142      1         2         
1      794       526       29963     290       52        161       161       1143      1         3         
2      842       743       29943     290       290       210       210       1144      1         3         
1      842       621       29965     290       280       151       151       1144      2         5         
1      930       603       29941     999       189       225       225       1145      1         3         
1      1005      1032      29942     50        84        208       208       1150      1         3         
1      679       582       29928     290       189       191       191       1151      1         2         
1      980       652       29900     291       189       207       207       1201      1         3         
3      387       19        29959     299       98        160       160       1225      1         2         
1      923       1244      29908     290       192       282       282       1246      1         2         
3      882       720       29934     290       290       230       230       1252      1         3         
1      768       813       29913     290       290       229       229       1263      1         2         
1      789       723       29959     290       290       144       144       1270      1         3         
1      397       603       29959     168       189       137       137       1291      1         3         
3      1211      1264      29939     129       192       187       187       1303      1         2         
1      948       535       29965     290       189       200       200       1334      1         4         
1      794       489       29935     290       199       215       215       1358      1         3         
3      884       651       29926     290       189       257       257       1377      1         3         
3      463       457       29957     168       52        140       140       1461      1         3         
3      947       356       29860     290       119       348       348       1715      1         2         
1      768       417       29929     290       100       195       195       1730      1         4         
1      354       510       29948     119       199       181       181       1748      1         2         
1      1053      883       29855     84        290       356       356       1755      1         2         
1      252       604       29946     206       189       160       160       1823      1         2         
1      767       649       29966     290       189       140       140       1857      1         3         
2      416       431       29957     100       52        106       106       1868      1         3         
2      813       719       29523     290       189       646       646       1871      1         2         
2      749       719       29949     290       189       206       206       1908      1         3         
1      882       742       29961     290       290       98        98        1936      1         5         
4      839       580       29626     290       189       569       569       1964      1         2         
1      791       652       29891     290       189       261       261       1979      1         2         
1      354       579       29968     119       189       161       161       1996      1         2         
1      291       628       29970     87        189       0         0         0         0         0         
1      462       465       29970     189       199       0         0         0         0         0         
2      1475      1225      29970     296       192       0         0         0         0         0         
1      191       461       29970     266       189       0         0         0         0         0         
1      654       559       29970     189       189       0         0         0         0         0         
1      431       270       29971     52        127       0         0         0         0         0         
1      505       648       29971     52        189       0         0         0         0         0         
1      693       576       29971     280       189       0         0         0         0         0         
2      665       579       29972     131       189       0         0         0         0         0         
1      1068      1065      29972     291       291       0         0         0         0         0         
2      115       170       29972     9         286       0         0         0         0         0         
2      740       526       29972     50        52        0         0         0         0         0         
3      665       579       29972     131       189       0         0         0         0         0         
1      791       696       29973     290       189       0         0         0         0         0         
1      266       626       29973     266       189       0         0         0         0         0         
1      702       883       29973     290       290       0         0         0         0         0         
1      527       232       29973     52        266       0         0         0         0         0         
1      881       850       29974     290       291       0         0         0         0         0         
1      969       983       29974     290       291       0         0         0         0         0         
1      507       419       29974     189       168       0         0         0         0         0         
2      551       532       29975     189       199       0         0         0         0         0         
1      714       373       29975     131       119       0         0         0         0         0         
1      992       1068      29975     290       291       0         0         0         0         0         
1      476       530       29975     52        189       0         0         0         0         0         
1      905       373       29976     290       119       0         0         0         0         0         
3      549       371       29976     52        52        0         0         0         0         0         
3      549       371       29976     52        52        0         0         0         0         0         
1      527       332       29976     52        87        0         0         0         0         0         
2      991       984       29976     290       291       0         0         0         0         0         
1      99        251       29976     286       127       0         0         0         0         0         
1      508       675       29976     199       189       0         0         0         0         0         
1      1048      1053      29976     291       84        0         0         0         0         0         
1      228       115       29977     266       9         0         0         0         0         0         
1      607       213       29977     189       266       0         0         0         0         0         
2      835       698       29977     290       189       0         0         0         0         0         
1      771       793       29977     290       290       0         0         0         0         0         
1      533       481       29977     199       189       0         0         0         0         0         
1      1045      421       29978     291       168       0         0         0         0         0         
1      702       174       29978     290       266       0         0         0         0         0         
1      960       749       29978     291       290       0         0         0         0         0         
1      436       672       29979     100       189       0         0         0         0         0         
1      499       189       29979     52        286       0         0         0         0         0         
1      172       267       29979     286       266       0         0         0         0         0         
1      78        266       29979     9         266       0         0         0         0         0         
1      628       527       29979     189       52        0         0         0         0         0         
1      597       736       29980     131       131       0         0         0         0         0         
2      601       559       29980     189       189       0         0         0         0         0         
1      770       744       29980     290       290       0         0         0         0         0         
3      250       133       29980     127       9         0         0         0         0         0         
1      654       602       29981     189       189       0         0         0         0         0         
2      946       1010      29981     290       290       0         0         0         0         0         
1      936       189       29981     291       286       0         0         0         0         0         
1      631       579       29981     189       189       0         0         0         0         0         
1      284       651       29981     299       189       0         0         0         0         0         
2      439       604       29982     189       189       0         0         0         0         0         
1      759       594       29982     131       131       0         0         0         0         0         
1      968       962       29982     290       291       0         0         0         0         0         
1      32        394       29982     98        100       0         0         0         0         0         
2      749       376       29983     290       168       0         0         0         0         0         
3      749       376       29983     290       168       0         0         0         0         0         
1      304       759       29983     299       131       0         0         0         0         0         
2      768       891       29983     290       291       0         0         0         0         0         
1      781       833       29983     291       50        0         0         0         0         0         
2      556       618       29984     199       131       0         0         0         0         0         
1      768       121       29984     290       57        0         0         0         0         0         
1      604       738       29984     189       189       0         0         0         0         0         
1      354       555       29984     119       199       0         0         0         0         0         
1      582       575       29984     189       189       0         0         0         0         0         
1      768       884       29984     290       290       0         0         0         0         0         
3      829       739       29984     50        189       0         0         0         0         0         
3      556       618       29984     199       131       0         0         0         0         0         
2      1420      651       29985     129       189       0         0         0         0         0         
1      927       834       29985     290       290       0         0         0         0         0         
1      118       533       29985     286       199       0         0         0         0         0         
1      532       624       29986     199       189       0         0         0         0         0         
1      861       595       29986     290       131       0         0         0         0         0         
1      745       834       29986     290       290       0         0         0         0         0         
1      410       597       29986     52        131       0         0         0         0         0         
2      598       719       29986     189       189       0         0         0         0         0         
1      511       252       29986     199       206       0         0         0         0         0         
2      737       673       29986     189       189       0         0         0         0         0         
1      680       602       29987     290       189       0         0         0         0         0         
4      115       101       29987     9         57        0         0         0         0         0         
1      698       602       29987     189       189       0         0         0         0         0         
1      740       412       29987     50        52        0         0         0         0         0         
1      576       652       29988     189       189       0         0         0         0         0         
1      524       642       29988     52        131       0         0         0         0         0         
1      760       698       29988     291       189       0         0         0         0         0         
1      666       116       29988     131       9         0         0         0         0         0         
2      727       252       29988     290       206       0         0         0         0         0         
1      608       697       29989     189       189       0         0         0         0         0         
1      372       212       29989     119       266       0         0         0         0         0         
1      748       651       29989     290       189       0         0         0         0         0         
1      749       743       29989     290       290       0         0         0         0         0         
1      781       667       29990     291       131       0         0         0         0         0         
1      486       671       29990     199       280       0         0         0         0         0         
1      99        552       29990     286       189       0         0         0         0         0         
1      233       575       29990     206       189       0         0         0         0         0         
1      769       418       29990     290       168       0         0         0         0         0         
1      873       696       29990     291       189       0         0         0         0         0         
1      115       558       29990     9         189       0         0         0         0         0         
1      309       284       29991     127       299       0         0         0         0         0         
1      688       779       29991     131       131       0         0         0         0         0         
1      551       583       29991     189       189       0         0         0         0         0         
3      46        727       29991     98        290       0         0         0         0         0         
3      46        727       29991     98        290       0         0         0         0         0         
1      632       772       29991     189       290       0         0         0         0         0         
1      644       655       29991     131       189       0         0         0         0         0         
1      311       374       29992     87        119       0         0         0         0         0         
1      452       438       29992     52        100       0         0         0         0         0         
1      603       716       29992     189       189       0         0         0         0         0         
4      727       1530      29992     290       296       0         0         0         0         0         
1      386       291       29992     299       87        0         0         0         0         0         
4      904       805       29992     290       291       0         0         0         0         0         
1      694       430       29992     189       52        0         0         0         0         0         
2      792       674       29993     290       189       0         0         0         0         0         
3      792       674       29993     290       189       0         0         0         0         0         
3      852       600       29993     291       280       0         0         0         0         0         
3      852       600       29993     291       280       0         0         0         0         0         
1      582       601       29993     189       189       0         0         0         0         0         
2      534       604       29993     199       189       0         0         0         0         0         
1      48        651       29993     98        189       0         0         0         0         0         
1      99        626       29993     286       189       0         0         0         0         0         
1      652       749       29993     189       290       0         0         0         0         0         
1      434       812       29993     52        290       0         0         0         0         0         
1      909       533       29994     290       199       0         0         0         0         0         
1      745       973       29994     290       84        0         0         0         0         0         
1      598       373       29994     189       119       0         0         0         0         0         
1      354       484       29994     119       189       0         0         0         0         0         
1      354       483       29994     119       189       0         0         0         0         0         
1      748       650       29994     290       189       0         0         0         0         0         
1      717       776       29994     189       131       0         0         0         0         0         
3      307       416       29994     127       100       0         0         0         0         0         
3      307       416       29994     127       100       0         0         0         0         0         
1      701       858       29994     290       290       0         0         0         0         0         
3      715       643       29995     131       131       0         0         0         0         0         
1      645       716       29995     280       189       0         0         0         0         0         
1      556       627       29995     199       189       0         0         0         0         0         
1      415       473       29995     100       52        0         0         0         0         0         
1      462       350       29995     189       127       0         0         0         0         0         
4      43        170       29995     9         286       0         0         0         0         0         
1      947       674       29995     290       189       0         0         0         0         0         
1      672       527       29995     189       52        0         0         0         0         0         
1      780       628       29995     291       189       0         0         0         0         0         
1      839       392       29995     290       52        0         0         0         0         0         
2      715       643       29995     131       131       0         0         0         0         0         
1      352       573       29996     119       189       0         0         0         0         0         
1      906       452       29996     290       52        0         0         0         0         0         
1      185       604       29996     87        189       0         0         0         0         0         
2      608       748       29996     189       290       0         0         0         0         0         
1      441       440       29996     168       168       0         0         0         0         0         
1      694       580       29996     189       189       0         0         0         0         0         
1      747       863       29996     290       290       0         0         0         0         0         
1      287       304       29997     299       299       0         0         0         0         0         
1      258       748       29997     87        290       0         0         0         0         0         
1      884       628       29998     290       189       0         0         0         0         0         
2      482       776       29998     189       131       0         0         0         0         0         
2      556       748       29998     199       290       0         0         0         0         0         
1      1044      871       29998     291       291       0         0         0         0         0         
2      748       1529      29998     290       296       0         0         0         0         0         
1      778       1010      29999     131       290       0         0         0         0         0         
1      727       557       29999     290       189       0         0         0         0         0         
1      946       116       29999     290       9         0         0         0         0         0         
2      527       488       29999     52        199       0         0         0         0         0         
3      651       556       29999     189       199       0         0         0         0         0         
2      651       556       29999     189       199       0         0         0         0         0         
